64 69 14 67 30 76 99 15 65 86 17 79 8 88 58 77 20 56 93 91 89 48 25 
92 42 39 29 63 21 11 7 71 84 94 33 22 49 32 50 66 24 74 55 100 1 60 70 
62 45 5 12 52 59 98 73 2 18 51 26 10 46 4 43 54 35 68 80 13 
83 23 27 28 31 95 82 78 61 53 9 16 90 57 6 3 96 41 37 36 
72 44 75 47 19 85 40 38 81 34 97 
87 

